sifdecoder -A pc64.lnx.gfo -st   STEENBRE

 Problem name: STEENBRE

 Double precision version will be formed

 The objective function uses 1 nonlinear group
 
 There are 126 linear equality constraints
 
 There are 540 variables bounded only from below 
 
 
 File successfully decoded
 CUTEST: tools (double precision version) compiled successfully
 CUTEst: ipopt (double precision version) compiled successfully

******************************************************************************
This program contains Ipopt, a library for large-scale nonlinear optimization.
 Ipopt is released as open source code under the Eclipse Public License (EPL).
         For more information visit http://projects.coin-or.org/Ipopt
******************************************************************************

This is Ipopt version trunk, running with linear solver ma57.

Number of nonzeros in equality constraint Jacobian...:     1008
Number of nonzeros in inequality constraint Jacobian.:        0
Number of nonzeros in Lagrangian Hessian.............:     4320

Reallocating memory for MA57: lfact (224385)
Total number of variables............................:      540
                     variables with only lower bounds:      540
                variables with lower and upper bounds:        0
                     variables with only upper bounds:        0
Total number of equality constraints.................:      126
Total number of inequality constraints...............:        0
        inequality constraints with only lower bounds:        0
   inequality constraints with lower and upper bounds:        0
        inequality constraints with only upper bounds:        0

iter    objective    inf_pr   inf_du lg(mu)  ||d||  lg(rg) alpha_du alpha_pr  ls
   0  3.9878202e+03 1.00e+04 1.01e+02  -1.0 0.00e+00    -  0.00e+00 0.00e+00   0
   1  3.9874995e+03 1.00e+04 1.01e+02  -1.0 1.76e+03    -  5.63e-05 5.63e-05h  1
   2  4.7536621e+03 1.00e+04 1.01e+02  -1.0 4.75e+03    -  4.15e-05 2.73e-04h  1
   3  6.8290542e+03 9.99e+03 1.01e+02  -1.0 6.40e+03    -  1.94e-04 6.30e-04h  1
   4  1.2909436e+04 9.97e+03 1.01e+02  -1.0 8.12e+03    -  6.37e-04 1.80e-03h  1
   5  2.8862486e+04 9.92e+03 1.01e+02  -1.0 1.04e+04    -  1.35e-03 5.36e-03h  1
   6  5.0149563e+04 9.85e+03 1.01e+02  -1.0 1.06e+04    -  5.46e-03 7.37e-03h  1
   7  6.4735579e+04 9.79e+03 1.00e+02  -1.0 9.86e+03    -  7.47e-03 5.20e-03h  1
   8  1.3167553e+05 9.54e+03 9.90e+01  -1.0 9.80e+03    -  7.68e-03 2.58e-02h  1
   9  1.7234195e+05 9.38e+03 9.78e+01  -1.0 9.54e+03    -  2.20e-02 1.67e-02h  1
iter    objective    inf_pr   inf_du lg(mu)  ||d||  lg(rg) alpha_du alpha_pr  ls
  10  2.5868127e+05 9.05e+03 9.55e+01  -1.0 9.38e+03    -  3.21e-02 3.57e-02h  1
  11  4.2343052e+05 8.39e+03 9.15e+01  -1.0 9.05e+03    -  6.55e-02 7.27e-02h  1
  12  7.6353060e+05 6.95e+03 8.36e+01  -1.0 8.39e+03    -  1.51e-01 1.72e-01h  1
  13  1.6097113e+06 2.97e+03 6.58e+01  -1.0 6.95e+03    -  2.37e-02 5.72e-01h  1
  14  1.6024387e+06 2.93e+03 6.50e+01  -1.0 2.97e+03    -  1.12e-02 1.30e-02f  1
  15  1.5962690e+06 2.89e+03 6.42e+01  -1.0 2.93e+03    -  1.32e-02 1.27e-02f  1
  16  1.5933171e+06 2.86e+03 6.35e+01  -1.0 2.89e+03    -  1.08e-01 1.09e-02f  1
  17  1.3981024e+06 1.41e+03 4.27e+01  -1.0 2.86e+03    -  1.32e-02 5.08e-01f  1
  18  1.3792895e+06 1.39e+03 4.23e+01  -1.0 3.79e+04    -  1.03e-02 9.64e-03f  1
  19  1.3602114e+06 1.36e+03 4.13e+01  -1.0 1.85e+04    -  3.89e-03 2.55e-02f  1
iter    objective    inf_pr   inf_du lg(mu)  ||d||  lg(rg) alpha_du alpha_pr  ls
  20  1.2438186e+06 1.09e+03 3.43e+01  -1.0 1.38e+03  -4.0 4.39e-01 1.97e-01f  1
  21  1.1891147e+06 9.96e+02 3.15e+01  -1.0 1.79e+03    -  2.00e-01 8.72e-02f  1
  22  7.7965045e+05 6.36e-09 1.39e+01  -1.0 1.54e+03    -  3.62e-03 1.00e+00f  1
  23  7.2548011e+05 6.13e-09 1.33e+01  -1.0 3.65e+04    -  8.35e-03 4.61e-02f  1
  24  5.2802557e+05 4.34e-09 8.96e+00  -1.0 4.66e+03  -4.5 4.25e-03 4.21e-01f  1
  25  5.2761180e+05 4.33e-09 8.95e+00  -1.0 2.41e+04    -  4.03e-02 8.14e-04f  1
  26  5.0396799e+05 4.22e-09 8.62e+00  -1.0 1.99e+04    -  1.22e-02 3.75e-02f  1
  27  5.0253111e+05 4.22e-09 8.58e+00  -1.0 1.78e+03    -  8.23e-01 4.19e-03f  1
  28  2.9564006e+05 2.49e-09 3.56e+00  -1.0 1.81e+03    -  1.43e-01 1.00e+00f  1
  29  1.7903667e+05 8.74e-10 1.48e+00  -1.0 2.42e+03    -  3.13e-01 1.00e+00f  1
iter    objective    inf_pr   inf_du lg(mu)  ||d||  lg(rg) alpha_du alpha_pr  ls
  30  1.1349454e+05 4.84e-10 6.72e-01  -1.0 3.22e+03    -  5.67e-01 1.00e+00f  1
  31  8.0355389e+04 2.32e-10 3.41e-01  -1.7 4.28e+03    -  1.32e-01 8.22e-01f  1
  32  5.7328025e+04 1.19e-10 1.28e-01  -1.7 5.44e+03    -  8.08e-01 1.00e+00f  1
  33  4.7276773e+04 6.34e-11 6.99e-02  -2.5 7.20e+03    -  6.32e-01 6.86e-01f  1
  34  3.8711123e+04 2.85e-11 2.98e-02  -2.5 8.79e+03    -  1.00e+00 1.00e+00f  1
  35  3.3974235e+04 1.44e-11 1.25e-02  -2.5 1.15e+04    -  1.00e+00 1.00e+00f  1
  36  3.1966232e+04 7.16e-12 7.59e-03  -3.8 1.48e+04    -  7.81e-01 6.69e-01f  1
  37  3.1294847e+04 2.03e-10 1.33e-02  -3.8 1.72e+04    -  1.00e+00 2.94e-01f  1
  38  2.9972873e+04 1.14e-11 5.58e+01  -3.8 1.82e+04    -  1.00e+00 9.41e-01f  1
  39  2.9971773e+04 1.16e-11 5.58e+01  -3.8 4.83e+00  -2.2 3.28e-02 2.86e-04f  1
iter    objective    inf_pr   inf_du lg(mu)  ||d||  lg(rg) alpha_du alpha_pr  ls
  40  2.9958318e+04 1.16e-11 6.08e+01  -3.8 2.05e+04    -  2.09e-01 9.15e-03f  1
  41  2.9953967e+04 1.08e-11 5.78e+01  -3.8 2.12e+00  -2.7 1.66e-01 8.34e-02f  1
  42  2.9751689e+04 9.08e-12 4.62e+01  -3.8 2.05e+04    -  4.44e-02 1.86e-01f  1
  43  2.9730375e+04 8.85e-12 4.51e+01  -3.8 2.07e+04    -  3.12e-03 2.08e-02f  1
  44  2.9730291e+04 8.87e-12 4.51e+01  -3.8 8.31e+00  -1.4 1.97e-02 3.29e-03f  1
  45  2.9728425e+04 2.34e-11 4.17e+01  -3.8 1.28e+00  -1.9 3.11e-02 7.20e-02f  1
  46  2.9623917e+04 1.89e-11 4.03e+01  -3.8 2.07e+04    -  7.04e-01 1.09e-01f  1
  47  2.9614084e+04 1.85e-11 3.98e+01  -3.8 2.07e+04    -  6.86e-02 1.06e-02f  1
  48  2.9422342e+04 1.02e-11 3.15e+01  -3.8 2.07e+04    -  3.57e-01 2.32e-01f  1
  49  2.9222127e+04 3.95e-12 2.31e+01  -3.8 2.05e+04    -  3.27e-01 2.97e-01f  1
iter    objective    inf_pr   inf_du lg(mu)  ||d||  lg(rg) alpha_du alpha_pr  ls
  50  2.8822756e+04 1.07e-11 6.79e+00  -3.8 1.99e+04    -  1.00e+00 1.00e+00f  1
  51  2.8637159e+04 4.33e-12 1.71e+00  -3.8 1.40e+04    -  7.99e-01 1.00e+00f  1
  52  2.8557103e+04 1.43e-12 1.97e-01  -3.8 1.56e+04    -  8.95e-01 1.00e+00f  1
  53  2.8527714e+04 1.52e-12 1.75e-01  -3.8 1.67e+04    -  2.85e-01 1.00e+00f  1
  54  2.8520086e+04 2.16e-12 7.49e-02  -3.8 1.39e+04    -  5.15e-01 1.00e+00f  1
  55  2.8520140e+04 1.66e-12 5.12e-02  -3.8 3.48e-02  -2.3 9.18e-01 7.20e-01f  1
  56  2.8519323e+04 1.89e-12 2.13e-02  -3.8 6.96e+03    -  6.37e-01 1.00e+00f  1
  57  2.8519360e+04 1.46e-12 1.31e-02  -3.8 3.11e-02  -2.8 1.00e+00 1.00e+00f  1
  58  2.8519382e+04 2.38e-12 3.90e-03  -3.8 2.94e-02  -3.3 1.00e+00 1.00e+00f  1
  59  2.8519399e+04 1.55e-12 1.81e-03  -3.8 3.57e-02  -3.8 1.00e+00 1.00e+00f  1
iter    objective    inf_pr   inf_du lg(mu)  ||d||  lg(rg) alpha_du alpha_pr  ls
  60  2.8519385e+04 4.07e-12 3.03e-04  -3.8 1.26e+03    -  1.00e+00 1.00e+00f  1
  61  2.8516841e+04 1.20e-12 5.62e-02  -5.7 3.68e-01  -4.3 1.00e+00 4.84e-01f  1
  62  2.8516504e+04 2.09e-12 1.13e-01  -5.7 2.67e-01  -4.7 1.00e+00 1.40e-01f  1
  63  2.8515754e+04 1.39e-12 7.57e-02  -5.7 5.68e-01  -5.2 1.00e+00 4.82e-01f  1
  64  2.8515432e+04 2.25e-12 4.02e-02  -5.7 3.07e+01    -  1.00e+00 3.94e-01f  1
  65  2.8515026e+04 6.88e-13 1.39e-02  -5.7 7.94e-01  -5.7 7.94e-01 9.96e-01f  1
Reallocating memory for MA57: lfact (235938)
  66  2.8515002e+04 2.14e-12 1.68e-03  -5.7 1.18e+00  -6.2 1.00e+00 1.00e+00f  1
  67  2.8514996e+04 2.48e-12 2.65e-04  -5.7 1.20e+00  -6.6 1.00e+00 1.00e+00f  1
  68  2.8514996e+04 2.41e-12 5.46e-06  -5.7 1.51e+00  -7.1 1.00e+00 1.00e+00h  1
  69  2.8514963e+04 2.93e-12 3.74e-04  -8.6 7.17e-02  -5.8 6.41e-01 8.12e-01f  1
Reallocating memory for MA57: lfact (251333)
iter    objective    inf_pr   inf_du lg(mu)  ||d||  lg(rg) alpha_du alpha_pr  ls
  70  2.8514953e+04 2.24e-12 3.52e-04  -8.6 2.66e-02  -5.4 6.11e-01 8.79e-01f  1
Reallocating memory for MA57: lfact (267961)
  71  2.8514951e+04 9.99e-13 1.10e-04  -8.6 7.46e-02  -5.8 6.88e-01 8.79e-01f  1
  72  2.8514951e+04 2.05e-12 7.73e-06  -8.6 2.75e-02  -5.4 1.00e+00 1.00e+00f  1
Reallocating memory for MA57: lfact (286696)
  73  2.8514951e+04 2.10e-12 2.99e-07  -8.6 1.02e-02  -5.0 1.00e+00 1.00e+00h  1
  74  2.8514951e+04 3.42e-12 1.02e-07  -8.6 2.97e-02  -5.5 1.00e+00 1.00e+00h  1
  75  2.8514951e+04 3.73e-12 9.28e-08  -8.6 8.14e-02  -5.9 1.00e+00 1.00e+00h  1
  76  2.8514951e+04 2.75e-13 8.97e-08  -8.6 2.95e-02  -5.5 1.00e+00 1.00e+00h  1
  77  2.8514951e+04 2.08e-12 8.11e-08  -8.6 8.00e-02  -6.0 1.00e+00 1.00e+00h  1
  78  2.8514951e+04 4.46e-13 7.80e-08  -8.6 2.89e-02  -5.6 1.00e+00 1.00e+00h  1
  79  2.8514951e+04 3.61e-12 7.69e-08  -8.6 1.07e-02  -5.1 1.00e+00 1.00e+00h  1
iter    objective    inf_pr   inf_du lg(mu)  ||d||  lg(rg) alpha_du alpha_pr  ls
  80  2.8514951e+04 1.83e-12 7.36e-08  -8.6 3.06e-02  -5.6 1.00e+00 1.00e+00h  1
  81  2.8514951e+04 1.82e-12 7.24e-08  -8.6 1.13e-02  -5.2 1.00e+00 1.00e+00h  1
  82  2.8514951e+04 3.65e-12 6.90e-08  -8.6 3.23e-02  -5.7 1.00e+00 1.00e+00h  1
  83  2.8514951e+04 1.75e-12 5.99e-08  -8.6 8.42e-02  -6.1 1.00e+00 1.00e+00h  1
  84  2.8514951e+04 8.87e-13 5.67e-08  -8.6 2.99e-02  -5.7 1.00e+00 1.00e+00h  1
  85  2.8514951e+04 1.49e-12 5.56e-08  -8.6 1.10e-02  -5.3 1.00e+00 1.00e+00h  1
  86  2.8514951e+04 1.70e-12 5.23e-08  -8.6 3.10e-02  -5.8 1.00e+00 1.00e+00h  1
  87  2.8514951e+04 3.41e-13 5.10e-08  -8.6 1.13e-02  -5.3 1.00e+00 1.00e+00h  1

Number of Iterations....: 87

                                   (scaled)                 (unscaled)
Objective...............:   5.1973703881132701e+02    2.8514950925830650e+04
Dual infeasibility......:   5.1043173217132464e-08    2.8004422827243861e-06
Constraint violation....:   3.4052847170658473e-13    3.4052847170658473e-13
Complementarity.........:   2.5059035597047883e-09    1.3748436554237181e-07
Overall NLP error.......:   5.1043173217132464e-08    2.8004422827243861e-06


Number of objective function evaluations             = 88
Number of objective gradient evaluations             = 88
Number of equality constraint evaluations            = 88
Number of inequality constraint evaluations          = 0
Number of equality constraint Jacobian evaluations   = 88
Number of inequality constraint Jacobian evaluations = 0
Number of Lagrangian Hessian evaluations             = 87
Total CPU secs in IPOPT (w/o function evaluations)   =      2.214
Total CPU secs in NLP function evaluations           =      0.036

EXIT: Solved To Acceptable Level.

************************ CUTEst statistics ************************


 Package used            :  IPOPT
 Problem                 :  STEENBRE  
 # variables             =             540
 # constraints           =             126
 # objective functions   =        0.1770000E+03
 # objective gradients   =        0.8900000E+02
 # objective Hessians    =        0.8800000E+02
 # Hessian-vector prdct  =        0.0000000E+00
 # constraints functions =        0.1780000E+03
 # constraints gradients =        0.9000000E+02
 # constraints Hessians  =        0.8800000E+02
 Exit code               =               1
 Final f                 =        2.8514950925830650D+04
 Bounds feasibility      =        0.0000000000000000D+00
 Set up time             =            0.03 seconds
 Solve time              =            4.55 seconds


******************************************************************

